(set-info :smt-lib-version 2.6)
(set-logic UF)
(set-info :source |
Generated by: Andrew Reynolds
Generated on: 2017-04-28
Generator: Sledgehammer, converted to v2.6 by CVC4
Application: Verfication goals in Isabelle
Target solver: CVC4, Z3
Publications: "A Decision Procedure for (Co)Datatypes" by Andrew Reynolds and Jasmin Blanchette, CADE 2015.
|)
(set-info :license "https://creativecommons.org/licenses/by/4.0/")
(set-info :category "industrial")
(set-info :status unknown)


(declare-sort A$ 0)
(declare-sort Nat$ 0)
(declare-sort A_bool_fun$ 0)
(declare-sort Nat_nat_fun$ 0)
(declare-sort Num_num_fun$ 0)
(declare-sort Nat_bool_fun$ 0)
(declare-sort Num_bool_fun$ 0)
(declare-sort Natural_bool_fun$ 0)
(declare-sort Natural_natural_fun$ 0)
(declare-sort Nat_nat_bool_fun_fun$ 0)
(declare-sort A_llist$ 0)
(declare-fun lNil$ () A_llist$)
(declare-fun lhd$ (A_llist$) A$)
(declare-fun ltl$ (A_llist$) A_llist$)
(declare-fun lCons$ (A$ A_llist$) A_llist$)
(declare-sort Natural$ 0)
(declare-sort Num$ 0)
(declare-sort Nat_option$ 0)
(declare-sort Enat$ 0)
(declare-fun nat_of_natural$ (Natural$) Nat$)
(declare-fun natural_of_nat$ (Nat$) Natural$)
(declare-fun one$ () Num$)
(declare-fun select$ (Num$) Num$)
(declare-fun bit0$ (Num$) Num$)
(declare-fun selecta$ (Num$) Num$)
(declare-fun bit1$ (Num$) Num$)
(declare-fun none$ () Nat_option$)
(declare-fun the$ (Nat_option$) Nat$)
(declare-fun some$ (Nat$) Nat_option$)
(declare-fun rep_enat$ (Enat$) Nat_option$)
(declare-fun abs_enat$ (Nat_option$) Enat$)
(declare-fun n$ () Nat$)
(declare-fun x$ () A$)
(declare-fun xs$ () A_llist$)
(declare-fun inc$ (Num$) Num$)
(declare-fun bitM$ (Num$) Num$)
(declare-fun lnth$ (A_llist$ Nat$) A$)
(declare-fun one$a () Nat$)
(declare-fun one$b () Natural$)
(declare-fun plus$ (Natural$ Natural$) Natural$)
(declare-fun size$ (Natural$) Nat$)
(declare-fun zero$ () Nat$)
(declare-fun minus$ (Nat$) Nat_nat_fun$)
(declare-fun plus$a (Nat$) Nat_nat_fun$)
(declare-fun plus$b (Num$) Num_num_fun$)
(declare-fun zero$a () Natural$)
(declare-fun minus$a (Natural$) Natural_natural_fun$)
(declare-fun fun_app$ (Nat_nat_fun$ Nat$) Nat$)
(declare-fun lmember$ (A$ A_llist$) Bool)
(declare-fun numeral$ (Num$) Nat$)
(declare-fun of_bool$ (Bool) Nat$)
(declare-fun fun_app$a (Natural_natural_fun$ Natural$) Natural$)
(declare-fun fun_app$b (A_bool_fun$ A$) Bool)
(declare-fun fun_app$c (Nat_bool_fun$ Nat$) Bool)
(declare-fun fun_app$d (Natural_bool_fun$ Natural$) Bool)
(declare-fun fun_app$e (Num_num_fun$ Num$) Num$)
(declare-fun fun_app$f (Num_bool_fun$ Num$) Bool)
(declare-fun fun_app$g (Nat_nat_bool_fun_fun$ Nat$) Nat_bool_fun$)
(declare-fun numeral$a (Num$) Natural$)
(declare-fun of_bool$a (Bool) Natural$)
(declare-fun pred_llist$ (A_bool_fun$ A_llist$) Bool)
(declare-fun gen_llength$ (Nat$ A_llist$) Enat$)
(declare-fun size_natural$ (Natural$) Nat$)
(assert (not (= (lnth$ (lCons$ x$ xs$) n$) (ite (= n$ zero$) x$ (lnth$ xs$ (fun_app$ (minus$ n$) one$a))))))
(assert (forall ((?v0 A$) (?v1 A_llist$) (?v2 A$) (?v3 A_llist$)) (= (= (lCons$ ?v0 ?v1) (lCons$ ?v2 ?v3)) (and (= ?v0 ?v2) (= ?v1 ?v3))) ))
(assert (forall ((?v0 A$) (?v1 A_llist$)) (! (= (lnth$ (lCons$ ?v0 ?v1) zero$) ?v0) :pattern ((lCons$ ?v0 ?v1)))))
(assert (forall ((?v0 Nat$)) (! (= (fun_app$ (minus$ ?v0) ?v0) zero$) :pattern ((minus$ ?v0)))))
(assert (forall ((?v0 Nat$)) (! (= (fun_app$ (minus$ zero$) ?v0) zero$) :pattern ((fun_app$ (minus$ zero$) ?v0)))))
(assert (forall ((?v0 Nat$)) (= (fun_app$ (minus$ ?v0) zero$) ?v0) ))
(assert (forall ((?v0 Natural$)) (= (fun_app$a (minus$a ?v0) zero$a) ?v0) ))
(assert (forall ((?v0 Nat$)) (! (= (fun_app$ (minus$ ?v0) ?v0) zero$) :pattern ((minus$ ?v0)))))
(assert (forall ((?v0 Natural$)) (! (= (fun_app$a (minus$a ?v0) ?v0) zero$a) :pattern ((minus$a ?v0)))))
(assert (forall ((?v0 Nat$)) (= (fun_app$ (minus$ zero$) ?v0) zero$) ))
(assert (forall ((?v0 Natural$)) (= (fun_app$a (minus$a zero$a) ?v0) zero$a) ))
(assert (forall ((?v0 Nat$)) (! (= (fun_app$ (minus$ ?v0) zero$) ?v0) :pattern ((minus$ ?v0)))))
(assert (forall ((?v0 Nat$)) (= (= zero$ ?v0) (= ?v0 zero$)) ))
(assert (forall ((?v0 Natural$)) (= (= zero$a ?v0) (= ?v0 zero$a)) ))
(assert (forall ((?v0 Nat$)) (= (= one$a ?v0) (= ?v0 one$a)) ))
(assert (forall ((?v0 Natural$)) (= (= one$b ?v0) (= ?v0 one$b)) ))
(assert (forall ((?v0 Nat$) (?v1 Nat$) (?v2 Nat$)) (= (fun_app$ (minus$ (fun_app$ (minus$ ?v0) ?v1)) ?v2) (fun_app$ (minus$ (fun_app$ (minus$ ?v0) ?v2)) ?v1)) ))
(assert (forall ((?v0 Natural$) (?v1 Natural$) (?v2 Natural$)) (= (fun_app$a (minus$a (fun_app$a (minus$a ?v0) ?v1)) ?v2) (fun_app$a (minus$a (fun_app$a (minus$a ?v0) ?v2)) ?v1)) ))
(assert (forall ((?v0 Nat$)) (=> (and (=> (= ?v0 zero$) false) (=> (not (= ?v0 zero$)) false)) false) ))
(assert (forall ((?v0 Nat$) (?v1 Nat$) (?v2 Nat$)) (= (fun_app$ (minus$ (fun_app$ (minus$ ?v0) ?v1)) ?v2) (fun_app$ (minus$ (fun_app$ (minus$ ?v0) ?v2)) ?v1)) ))
(assert (forall ((?v0 Nat$) (?v1 Nat$)) (=> (and (= (fun_app$ (minus$ ?v0) ?v1) zero$) (= (fun_app$ (minus$ ?v1) ?v0) zero$)) (= ?v0 ?v1)) ))
(assert (not (= zero$ one$a)))
(assert (not (= zero$a one$b)))
(assert (forall ((?v0 A_bool_fun$) (?v1 A$) (?v2 A_llist$)) (! (= (pred_llist$ ?v0 (lCons$ ?v1 ?v2)) (and (fun_app$b ?v0 ?v1) (pred_llist$ ?v0 ?v2))) :pattern ((pred_llist$ ?v0 (lCons$ ?v1 ?v2))))))
(assert (= one$a one$a))
(assert (forall ((?v0 A$) (?v1 A$) (?v2 A_llist$)) (! (= (lmember$ ?v0 (lCons$ ?v1 ?v2)) (or (= ?v0 ?v1) (lmember$ ?v0 ?v2))) :pattern ((lmember$ ?v0 (lCons$ ?v1 ?v2))))))
(assert (= zero$ zero$))
(assert (= (size_natural$ zero$a) zero$))
(assert (forall ((?v0 Nat_bool_fun$) (?v1 Bool)) (= (fun_app$c ?v0 (of_bool$ ?v1)) (not (or (and ?v1 (not (fun_app$c ?v0 one$a))) (and (not ?v1) (not (fun_app$c ?v0 zero$)))))) ))
(assert (forall ((?v0 Natural_bool_fun$) (?v1 Bool)) (= (fun_app$d ?v0 (of_bool$a ?v1)) (not (or (and ?v1 (not (fun_app$d ?v0 one$b))) (and (not ?v1) (not (fun_app$d ?v0 zero$a)))))) ))
(assert (forall ((?v0 Bool)) (! (= (of_bool$ ?v0) (ite ?v0 one$a zero$)) :pattern ((of_bool$ ?v0)))))
(assert (forall ((?v0 Bool)) (! (= (of_bool$a ?v0) (ite ?v0 one$b zero$a)) :pattern ((of_bool$a ?v0)))))
(assert (forall ((?v0 Nat_bool_fun$) (?v1 Bool)) (= (fun_app$c ?v0 (of_bool$ ?v1)) (and (=> ?v1 (fun_app$c ?v0 one$a)) (=> (not ?v1) (fun_app$c ?v0 zero$)))) ))
(assert (forall ((?v0 Natural_bool_fun$) (?v1 Bool)) (= (fun_app$d ?v0 (of_bool$a ?v1)) (and (=> ?v1 (fun_app$d ?v0 one$b)) (=> (not ?v1) (fun_app$d ?v0 zero$a)))) ))
(assert (= (size$ zero$a) zero$))
(assert (= (of_bool$ true) one$a))
(assert (= (of_bool$a true) one$b))
(assert (forall ((?v0 Num$) (?v1 Num$)) (= (= (numeral$ ?v0) (numeral$ ?v1)) (= ?v0 ?v1)) ))
(assert (= (of_bool$ false) zero$))
(assert (= (of_bool$a false) zero$a))
(assert (= (fun_app$a (minus$a zero$a) one$b) zero$a))
(assert (forall ((?v0 Bool) (?v1 Bool)) (= (= (of_bool$a ?v0) (of_bool$a ?v1)) (= ?v0 ?v1)) ))
(assert (forall ((?v0 Bool) (?v1 Bool)) (= (= (of_bool$ ?v0) (of_bool$ ?v1)) (= ?v0 ?v1)) ))
(assert (forall ((?v0 Num$)) (not (= zero$ (numeral$ ?v0))) ))
(assert (forall ((?v0 Natural$) (?v1 Natural$) (?v2 Natural$)) (= (= (plus$ ?v0 ?v1) (plus$ ?v0 ?v2)) (= ?v1 ?v2)) ))
(assert (forall ((?v0 Nat$) (?v1 Nat$) (?v2 Nat$)) (= (= (fun_app$ (plus$a ?v0) ?v1) (fun_app$ (plus$a ?v0) ?v2)) (= ?v1 ?v2)) ))
(assert (forall ((?v0 Natural$) (?v1 Natural$) (?v2 Natural$)) (= (= (plus$ ?v0 ?v1) (plus$ ?v2 ?v1)) (= ?v0 ?v2)) ))
(assert (forall ((?v0 Nat$) (?v1 Nat$) (?v2 Nat$)) (= (= (fun_app$ (plus$a ?v0) ?v1) (fun_app$ (plus$a ?v2) ?v1)) (= ?v0 ?v2)) ))
(assert (forall ((?v0 Nat$)) (! (= (fun_app$ (plus$a ?v0) zero$) ?v0) :pattern ((plus$a ?v0)))))
(assert (forall ((?v0 Nat$) (?v1 Nat$)) (= (= (fun_app$ (plus$a ?v0) ?v1) zero$) (and (= ?v0 zero$) (= ?v1 zero$))) ))
(assert (forall ((?v0 Nat$) (?v1 Nat$) (?v2 Nat$)) (= (fun_app$ (minus$ (fun_app$ (minus$ ?v0) ?v1)) ?v2) (fun_app$ (minus$ ?v0) (fun_app$ (plus$a ?v1) ?v2))) ))
(assert (forall ((?v0 Nat$)) (= (fun_app$ (plus$a zero$) ?v0) ?v0) ))
(assert (forall ((?v0 Natural$)) (= (plus$ zero$a ?v0) ?v0) ))
(assert (forall ((?v0 Nat$)) (= (fun_app$ (plus$a ?v0) zero$) ?v0) ))
(assert (forall ((?v0 Natural$)) (= (plus$ ?v0 zero$a) ?v0) ))
(assert (forall ((?v0 Num$) (?v1 Num$) (?v2 Natural$)) (= (plus$ (numeral$a ?v0) (plus$ (numeral$a ?v1) ?v2)) (plus$ (numeral$a (fun_app$e (plus$b ?v0) ?v1)) ?v2)) ))
(assert (forall ((?v0 Num$) (?v1 Num$) (?v2 Nat$)) (= (fun_app$ (plus$a (numeral$ ?v0)) (fun_app$ (plus$a (numeral$ ?v1)) ?v2)) (fun_app$ (plus$a (numeral$ (fun_app$e (plus$b ?v0) ?v1))) ?v2)) ))
(assert (forall ((?v0 Num$) (?v1 Num$)) (= (plus$ (numeral$a ?v0) (numeral$a ?v1)) (numeral$a (fun_app$e (plus$b ?v0) ?v1))) ))
(assert (forall ((?v0 Num$) (?v1 Num$)) (= (fun_app$ (plus$a (numeral$ ?v0)) (numeral$ ?v1)) (numeral$ (fun_app$e (plus$b ?v0) ?v1))) ))
(assert (forall ((?v0 Nat$) (?v1 Nat$)) (= (fun_app$ (minus$ (fun_app$ (plus$a ?v0) ?v1)) ?v0) ?v1) ))
(assert (forall ((?v0 Natural$) (?v1 Natural$)) (= (fun_app$a (minus$a (plus$ ?v0 ?v1)) ?v0) ?v1) ))
(assert (forall ((?v0 Nat$) (?v1 Nat$)) (= (fun_app$ (minus$ (fun_app$ (plus$a ?v0) ?v1)) ?v1) ?v0) ))
(assert (forall ((?v0 Natural$) (?v1 Natural$)) (= (fun_app$a (minus$a (plus$ ?v0 ?v1)) ?v1) ?v0) ))
(assert (forall ((?v0 Nat$) (?v1 Nat$) (?v2 Nat$)) (= (fun_app$ (minus$ (fun_app$ (plus$a ?v0) ?v1)) (fun_app$ (plus$a ?v0) ?v2)) (fun_app$ (minus$ ?v1) ?v2)) ))
(assert (forall ((?v0 Natural$) (?v1 Natural$) (?v2 Natural$)) (= (fun_app$a (minus$a (plus$ ?v0 ?v1)) (plus$ ?v0 ?v2)) (fun_app$a (minus$a ?v1) ?v2)) ))
(assert (forall ((?v0 Nat$) (?v1 Nat$) (?v2 Nat$)) (= (fun_app$ (minus$ (fun_app$ (plus$a ?v0) ?v1)) (fun_app$ (plus$a ?v2) ?v1)) (fun_app$ (minus$ ?v0) ?v2)) ))
(assert (forall ((?v0 Natural$) (?v1 Natural$) (?v2 Natural$)) (= (fun_app$a (minus$a (plus$ ?v0 ?v1)) (plus$ ?v2 ?v1)) (fun_app$a (minus$a ?v0) ?v2)) ))
(assert (forall ((?v0 Nat$) (?v1 Nat$)) (= (fun_app$ (minus$ ?v0) (fun_app$ (plus$a ?v0) ?v1)) zero$) ))
(assert (forall ((?v0 Natural$) (?v1 Natural$)) (= (fun_app$a (minus$a ?v0) (plus$ ?v0 ?v1)) zero$a) ))
(assert (forall ((?v0 Num$)) (= (= one$a (numeral$ ?v0)) (= one$ ?v0)) ))
(assert (forall ((?v0 Num$)) (= (= (numeral$ ?v0) one$a) (= ?v0 one$)) ))
(assert (forall ((?v0 Num$)) (= (plus$ one$b (numeral$a ?v0)) (numeral$a (fun_app$e (plus$b one$) ?v0))) ))
(assert (forall ((?v0 Num$)) (= (fun_app$ (plus$a one$a) (numeral$ ?v0)) (numeral$ (fun_app$e (plus$b one$) ?v0))) ))
(assert (forall ((?v0 Num$)) (= (plus$ (numeral$a ?v0) one$b) (numeral$a (fun_app$e (plus$b ?v0) one$))) ))
(assert (forall ((?v0 Num$)) (= (fun_app$ (plus$a (numeral$ ?v0)) one$a) (numeral$ (fun_app$e (plus$b ?v0) one$))) ))
(assert (forall ((?v0 Num$)) (! (= (fun_app$e (plus$b ?v0) one$) (inc$ ?v0)) :pattern ((plus$b ?v0)))))
(assert (forall ((?v0 Natural$) (?v1 Natural$) (?v2 Natural$) (?v3 Natural$)) (=> (and (= ?v0 ?v1) (= ?v2 ?v3)) (= (plus$ ?v0 ?v2) (plus$ ?v1 ?v3))) ))
(assert (forall ((?v0 Nat$) (?v1 Nat$) (?v2 Nat$) (?v3 Nat$)) (=> (and (= ?v0 ?v1) (= ?v2 ?v3)) (= (fun_app$ (plus$a ?v0) ?v2) (fun_app$ (plus$a ?v1) ?v3))) ))
(assert (forall ((?v0 Natural$) (?v1 Natural$) (?v2 Natural$)) (=> (= (plus$ ?v0 ?v1) (plus$ ?v0 ?v2)) (= ?v1 ?v2)) ))
(assert (forall ((?v0 Nat$) (?v1 Nat$) (?v2 Nat$)) (=> (= (fun_app$ (plus$a ?v0) ?v1) (fun_app$ (plus$a ?v0) ?v2)) (= ?v1 ?v2)) ))
(assert (forall ((?v0 Natural$) (?v1 Natural$) (?v2 Natural$)) (=> (= (plus$ ?v0 ?v1) (plus$ ?v2 ?v1)) (= ?v0 ?v2)) ))
(assert (forall ((?v0 Nat$) (?v1 Nat$) (?v2 Nat$)) (=> (= (fun_app$ (plus$a ?v0) ?v1) (fun_app$ (plus$a ?v2) ?v1)) (= ?v0 ?v2)) ))
(assert (forall ((?v0 Num$)) (! (= (fun_app$e (plus$b one$) ?v0) (fun_app$e (plus$b ?v0) one$)) :pattern ((fun_app$e (plus$b one$) ?v0)))))
(assert (forall ((?v0 Natural$) (?v1 Natural$)) (= (plus$ ?v0 ?v1) (plus$ ?v1 ?v0)) ))
(assert (forall ((?v0 Nat$) (?v1 Nat$)) (= (fun_app$ (plus$a ?v0) ?v1) (fun_app$ (plus$a ?v1) ?v0)) ))
(assert (forall ((?v0 Natural$) (?v1 Natural$) (?v2 Natural$)) (= (plus$ ?v0 (plus$ ?v1 ?v2)) (plus$ ?v1 (plus$ ?v0 ?v2))) ))
(assert (forall ((?v0 Nat$) (?v1 Nat$) (?v2 Nat$)) (= (fun_app$ (plus$a ?v0) (fun_app$ (plus$a ?v1) ?v2)) (fun_app$ (plus$a ?v1) (fun_app$ (plus$a ?v0) ?v2))) ))
(assert (forall ((?v0 Natural$) (?v1 Natural$) (?v2 Natural$)) (= (plus$ (plus$ ?v0 ?v1) ?v2) (plus$ ?v0 (plus$ ?v1 ?v2))) ))
(assert (forall ((?v0 Nat$) (?v1 Nat$) (?v2 Nat$)) (= (fun_app$ (plus$a (fun_app$ (plus$a ?v0) ?v1)) ?v2) (fun_app$ (plus$a ?v0) (fun_app$ (plus$a ?v1) ?v2))) ))
(assert (forall ((?v0 Natural$) (?v1 Natural$) (?v2 Natural$)) (= (plus$ (plus$ ?v0 ?v1) ?v2) (plus$ ?v0 (plus$ ?v1 ?v2))) ))
(assert (forall ((?v0 Nat$) (?v1 Nat$) (?v2 Nat$)) (= (fun_app$ (plus$a (fun_app$ (plus$a ?v0) ?v1)) ?v2) (fun_app$ (plus$a ?v0) (fun_app$ (plus$a ?v1) ?v2))) ))
(assert (forall ((?v0 Nat$)) (= (fun_app$ (plus$a zero$) ?v0) ?v0) ))
(assert (forall ((?v0 Natural$)) (= (plus$ zero$a ?v0) ?v0) ))
(assert (forall ((?v0 Nat$)) (= (fun_app$ (plus$a ?v0) zero$) ?v0) ))
(assert (forall ((?v0 Natural$)) (= (plus$ ?v0 zero$a) ?v0) ))
(assert (forall ((?v0 Nat$) (?v1 Nat$) (?v2 Nat$)) (=> (= (fun_app$ (plus$a ?v0) ?v1) ?v2) (= ?v0 (fun_app$ (minus$ ?v2) ?v1))) ))
(assert (forall ((?v0 Natural$) (?v1 Natural$) (?v2 Natural$)) (=> (= (plus$ ?v0 ?v1) ?v2) (= ?v0 (fun_app$a (minus$a ?v2) ?v1))) ))
(assert (forall ((?v0 Nat$) (?v1 Nat$) (?v2 Nat$)) (= (fun_app$ (minus$ (fun_app$ (minus$ ?v0) ?v1)) ?v2) (fun_app$ (minus$ ?v0) (fun_app$ (plus$a ?v1) ?v2))) ))
(assert (forall ((?v0 Natural$) (?v1 Natural$) (?v2 Natural$)) (= (fun_app$a (minus$a (fun_app$a (minus$a ?v0) ?v1)) ?v2) (fun_app$a (minus$a ?v0) (plus$ ?v1 ?v2))) ))
(assert (forall ((?v0 Nat$) (?v1 Nat$)) (=> (= (fun_app$ (plus$a ?v0) ?v1) ?v0) (= ?v1 zero$)) ))
(assert (forall ((?v0 Nat$)) (! (= (fun_app$ (plus$a zero$) ?v0) ?v0) :pattern ((fun_app$ (plus$a zero$) ?v0)))))
(assert (forall ((?v0 Nat$) (?v1 Nat$)) (= (fun_app$ (minus$ (fun_app$ (plus$a ?v0) ?v1)) ?v0) ?v1) ))
(assert (forall ((?v0 Nat$) (?v1 Nat$)) (= (fun_app$ (minus$ (fun_app$ (plus$a ?v0) ?v1)) ?v1) ?v0) ))
(assert (forall ((?v0 Nat$) (?v1 Nat$) (?v2 Nat$)) (= (fun_app$ (minus$ (fun_app$ (plus$a ?v0) ?v1)) (fun_app$ (plus$a ?v0) ?v2)) (fun_app$ (minus$ ?v1) ?v2)) ))
(assert (forall ((?v0 Nat$) (?v1 Nat$) (?v2 Nat$)) (= (fun_app$ (minus$ (fun_app$ (plus$a ?v0) ?v1)) (fun_app$ (plus$a ?v2) ?v1)) (fun_app$ (minus$ ?v0) ?v2)) ))
(assert (= (numeral$ one$) one$a))
(assert (forall ((?v0 Num$) (?v1 Num$)) (= (fun_app$e (plus$b ?v0) (inc$ ?v1)) (inc$ (fun_app$e (plus$b ?v0) ?v1))) ))
(assert (forall ((?v0 Num_bool_fun$) (?v1 Num$)) (=> (and (fun_app$f ?v0 one$) (forall ((?v2 Num$)) (=> (fun_app$f ?v0 ?v2) (fun_app$f ?v0 (inc$ ?v2))) )) (fun_app$f ?v0 ?v1)) ))
(assert (forall ((?v0 Num$)) (= (plus$ one$b (numeral$a ?v0)) (plus$ (numeral$a ?v0) one$b)) ))
(assert (forall ((?v0 Num$)) (= (fun_app$ (plus$a one$a) (numeral$ ?v0)) (fun_app$ (plus$a (numeral$ ?v0)) one$a)) ))
(assert (forall ((?v0 Nat$) (?v1 Nat$)) (= (fun_app$ (minus$ ?v0) (fun_app$ (plus$a ?v0) ?v1)) zero$) ))
(assert (= (numeral$a one$) one$b))
(assert (= (numeral$ one$) one$a))
(assert (forall ((?v0 Num$)) (= (numeral$a (inc$ ?v0)) (plus$ (numeral$a ?v0) one$b)) ))
(assert (forall ((?v0 Num$)) (= (numeral$ (inc$ ?v0)) (fun_app$ (plus$a (numeral$ ?v0)) one$a)) ))
(assert (= (bitM$ one$) one$))
(assert (forall ((?v0 Num$) (?v1 Num$)) (= (= (bit0$ ?v0) (bit0$ ?v1)) (= ?v0 ?v1)) ))
(assert (forall ((?v0 Num$)) (= (= (bit0$ ?v0) one$) false) ))
(assert (forall ((?v0 Num$)) (= (= one$ (bit0$ ?v0)) false) ))
(assert (forall ((?v0 Num$) (?v1 Num$)) (! (= (fun_app$e (plus$b (bit0$ ?v0)) (bit0$ ?v1)) (bit0$ (fun_app$e (plus$b ?v0) ?v1))) :pattern ((fun_app$e (plus$b (bit0$ ?v0)) (bit0$ ?v1))))))
(assert (= (fun_app$e (plus$b one$) one$) (bit0$ one$)))
(assert (= (plus$ one$b one$b) (numeral$a (bit0$ one$))))
(assert (= (fun_app$ (plus$a one$a) one$a) (numeral$ (bit0$ one$))))
(assert (forall ((?v0 Nat$) (?v1 Nat$) (?v2 Nat$)) (= (= (fun_app$ (plus$a ?v0) ?v1) (fun_app$ (plus$a ?v0) ?v2)) (= ?v1 ?v2)) ))
(assert (forall ((?v0 Nat$) (?v1 Nat$) (?v2 Nat$)) (= (= (fun_app$ (plus$a ?v0) ?v1) (fun_app$ (plus$a ?v2) ?v1)) (= ?v0 ?v2)) ))
(assert (forall ((?v0 Num$)) (not (= one$ (bit0$ ?v0))) ))
(assert (forall ((?v0 Num$)) (! (= (numeral$a (bit0$ ?v0)) (plus$ (numeral$a ?v0) (numeral$a ?v0))) :pattern ((bit0$ ?v0)))))
(assert (forall ((?v0 Num$)) (! (= (numeral$ (bit0$ ?v0)) (fun_app$ (plus$a (numeral$ ?v0)) (numeral$ ?v0))) :pattern ((bit0$ ?v0)))))
(assert (= (fun_app$ (plus$a one$a) one$a) (numeral$ (bit0$ one$))))
(assert (forall ((?v0 Num$)) (= (fun_app$e (plus$b one$) (bitM$ ?v0)) (bit0$ ?v0)) ))
(assert (forall ((?v0 Num$)) (= (fun_app$e (plus$b (bitM$ ?v0)) one$) (bit0$ ?v0)) ))
(assert (= (inc$ one$) (bit0$ one$)))
(assert (= (= one$ one$) true))
(assert (not (= zero$ (numeral$ (bit0$ one$)))))
(assert (forall ((?v0 Nat$) (?v1 A$) (?v2 A_llist$)) (! (= (gen_llength$ ?v0 (lCons$ ?v1 ?v2)) (gen_llength$ (fun_app$ (plus$a ?v0) one$a) ?v2)) :pattern ((gen_llength$ ?v0 (lCons$ ?v1 ?v2))))))
(assert (forall ((?v0 Nat_nat_bool_fun_fun$) (?v1 Nat$) (?v2 Nat$)) (=> (and (forall ((?v3 Nat$) (?v4 Nat$)) (= (fun_app$c (fun_app$g ?v0 ?v3) ?v4) (fun_app$c (fun_app$g ?v0 ?v4) ?v3)) ) (and (forall ((?v3 Nat$)) (fun_app$c (fun_app$g ?v0 ?v3) zero$) ) (forall ((?v3 Nat$) (?v4 Nat$)) (=> (fun_app$c (fun_app$g ?v0 ?v3) ?v4) (fun_app$c (fun_app$g ?v0 ?v3) (fun_app$ (plus$a ?v3) ?v4))) ))) (fun_app$c (fun_app$g ?v0 ?v1) ?v2)) ))
(assert (forall ((?v0 Nat$) (?v1 Nat$)) (= (= ?v0 (fun_app$ (plus$a ?v0) ?v1)) (= ?v1 zero$)) ))
(assert (forall ((?v0 Num$) (?v1 Num$)) (= (= (bit1$ ?v0) (bit1$ ?v1)) (= ?v0 ?v1)) ))
(assert (forall ((?v0 Num$)) (= (= one$ (bit1$ ?v0)) false) ))
(assert (forall ((?v0 Num$)) (= (= (bit1$ ?v0) one$) false) ))
(assert (forall ((?v0 Num$) (?v1 Num$)) (! (= (fun_app$e (plus$b (bit1$ ?v0)) (bit0$ ?v1)) (bit1$ (fun_app$e (plus$b ?v0) ?v1))) :pattern ((fun_app$e (plus$b (bit1$ ?v0)) (bit0$ ?v1))))))
(check-sat)
(exit)

